num_teams = 10;
cost = [|0,1,12,16,18,30,10,32,4,1,
|26,0,2,29,19,47,8,36,47,8,
|44,23,0,38,38,27,33,40,14,44,
|23,43,4,0,17,27,41,43,42,29,
|50,12,17,39,0,6,24,42,48,20,
|33,8,3,6,10,0,12,43,46,48,
|29,39,10,46,17,4,0,39,28,41,
|46,30,31,10,35,48,39,0,45,34,
|12,15,5,3,13,27,34,36,0,50,
|6,33,15,43,4,22,6,12,13,0,
|];